c PicoSAT SAT Solver Version 936
c Copyright (c) 2006 - 2010 Armin Biere JKU Linz
c gcc -Wall -Wextra -DNDEBUG -O3 -fomit-frame-pointer -finline-limit=1000000
c
c using 2 as default phase
c
c parsing /home/necavit/workspace_li/sat-solver/sample_problems/vars-250-4.cnf
c parsed header 'p cnf 250 1063'
c initialized 250 variables
c found 1063 non trivial clauses
c
c random number generator seed 0
c 
c  seconds     variables   original    learned     agility
c         level        used      conflicts    limit          MB
c 
c s   0.0   0.0   250   0.0  1063     0     0     0   0.0   0.1 
c 
c initial reduction limit 531 clauses
c 
c +   0.0  29.1   250  83.6  1063   100   100   584  11.4   0.1 
c R   0.0  29.1   250  83.6  1063   101   101   584  11.6   0.1 
c +   0.0  21.4   250  94.0  1063   250   250   642  22.4   0.1 
c N   0.0  19.4   250  97.6  1063   401   401   642  26.5   0.2 
c +   0.0  18.6   250  98.0  1063   475   475   706  27.5   0.2 
c +   0.0  16.6   250  98.4  1063   812   454   776  31.4   0.2 
c N   0.0  15.5   250  99.2  1063  1204   455   776  31.0   0.2 
c +   0.0  15.3   250  99.2  1063  1317   568   853  30.9   0.2 
c +   0.0  14.0   250  99.2  1063  2074   463   938  29.7   0.2 
c +   0.0  13.7   250  99.6  1063  3209   651  1031  30.9   0.2 
c N   0.0  13.7   250  99.6  1063  3213   655  1031  31.0   0.2 
c +   0.1  13.2   250  99.6  1063  4911   785  1134  29.3   0.2 
c +   0.1  12.6   250  99.6  1063  7464  1044  1247  31.6   0.2 
c N   0.1  12.4   250  99.6  1063  8026   980  1247  31.3   0.2 
c +   0.1  11.7   250  99.6  1063 11293  1098  1371  31.5   0.2 
c +   0.2  11.2   250  99.6  1063 17036  1312  1508  29.5   0.3 
c N   0.2  11.0   250  99.6  1063 19246  1242  1508  30.4   0.3 
c 1   0.2  11.1   250  99.6  1063 21205   922  1508  31.1   0.2 
c 
c  seconds     variables   original    learned     agility
c         level        used      conflicts    limit          MB
c 
s SATISFIABLE
v -1 2 3 4 5 6 7 8 -9 10 11 12 -13 -14 -15 16 17 -18 -19 20 -21 -22 23 -24 -25
v 26 -27 28 29 30 -31 32 -33 -34 35 -36 37 -38 -39 -40 41 42 -43 -44 -45 -46 47
v 48 -49 -50 51 52 53 -54 55 -56 57 -58 59 -60 61 62 -63 -64 -65 66 -67 68 69
v -70 71 72 -73 74 75 -76 77 -78 79 -80 81 82 83 84 85 -86 -87 88 89 -90 -91 92
v -93 -94 95 -96 97 -98 -99 100 101 102 103 -104 -105 106 107 108 109 110 -111
v -112 113 -114 -115 -116 117 118 -119 120 -121 122 123 124 125 -126 -127 -128
v 129 130 -131 -132 133 -134 -135 136 137 -138 -139 -140 141 142 143 -144 145
v 146 147 -148 -149 -150 151 -152 153 154 -155 -156 157 -158 159 160 161 162
v 163 164 165 -166 167 -168 -169 -170 -171 -172 173 -174 -175 -176 177 178 179
v 180 181 -182 183 184 185 186 -187 -188 189 -190 191 192 193 194 195 -196 197
v -198 -199 200 201 -202 203 204 -205 -206 -207 208 209 210 -211 -212 -213 214
v -215 216 217 218 -219 220 -221 -222 -223 -224 -225 226 -227 228 229 -230 -231
v -232 -233 -234 -235 -236 -237 -238 -239 -240 241 242 243 -244 -245 -246 247
v -248 249 -250 0
c
c 0 iterations
c 2 restarts
c 21205 conflicts
c 0 adc conflicts
c 24915 decisions
c 0 fixed variables
c 262149 learned literals
c 26.5% deleted literals
c 1223710 propagations
c 99.6% variables used
c 0.2 seconds in library
c 5.2 megaprops/second
c 1 simplifications
c 33 reductions
c 2.5 MB recycled
c 0.3 MB maximally allocated
c 0.2 seconds total run time
Command exited with non-zero status 10
0.23
